results/x-long/X-n162-k11.vrp_seed-26.out
14138	1243
