results/x-long/X-n162-k11.vrp_seed-26.vrp.sol
Route #1: 127 17 149 89 14 1 55 60 21 9 27 117 97 77 161
Route #2: 74 81 120 5 16 32 57 131 37 71 13 6 49 24 23
Route #3: 150 90 145 68 58 38 73 11 48 26 28 152 45 50
Route #4: 53 86 130 99 35 36 94 100 66 56 123 43 142 102 116 52
Route #5: 34 7 44 75 33 3 51 42 65 69 46 61 41 76 8
Route #6: 80 111 154 140 31 106 88 96 129 95 114 62 67 20 78 54
Route #7: 25 47 98 83 104 63 113 70 12 64 18 19 22 79
Route #8: 155 92 125 93 132 87 4 101 151 146 39 137 108 158 91 136
Route #9: 15 139 126 138 133 107 122 84 160 85 121 147 159 135 72
Route #10: 29 10 105 144 119 141 115 156 59
Route #11: 143 153 110 128 124 134 148 109 2 82 118 30 157 112 40 103
Cost 14138.000000